(set-logic ALL)
(declare-fun A () String)
(assert (= (str.++  "ghaiehabecigefgibdchcidcbhchagdgchiacdchcghfcaafbfgaghcgedddaaghchgdhgghibegagghaiciacdgbcadhbcgfifefgcbfcagddebddbeibedfecbh" "")  (str.++  "ghaiehabecigefgibdchcidcbhchagdg" A "bddbeibedfecbh") ))
(check-sat)
(get-model)
